32 12
6 3
8 614
11 613
7 143
6 25
7 225
8 625
11 113
2 72
1 56
6 467
5 435
4 801
10 875
10 345
5 909
10 623
6 274
10 820
4 747
2 411
4 639
3 265
6 532
10 454
1 416
5 436
5 164
9 487
7 399
9 985
10 479
